TCS_Benchmarks/redos_fix/corpus1_output_distinct_3369_3368_8_0.smt2
(set-logic QF_S)
(declare-const x String)
(assert (str.in.re x (re.inter  (re.++ (re.* (re.union (re.range "\u{00}" "\u{09}") (re.range "\u{0b}" "\u{0c}") (re.range "\u{0e}" "\u{84}") (re.range "\u{86}" "\u{ff}")) ) (re.* (re.union (re.range "\u{00}" "\u{09}") (re.range "\u{0b}" "\u{0c}") (re.range "\u{0e}" "\u{84}") (re.range "\u{86}" "\u{ff}")) ))  (re.++ (re.* (re.union (re.range "\u{00}" "\u{09}") (re.range "\u{0b}" "\u{0c}") (re.range "\u{0e}" "\u{84}") (re.range "\u{86}" "\u{ff}")) ) (re.++  (re.++  (str.to.re "\u{54}") (re.++  (str.to.re "\u{41}") (re.++  (str.to.re "\u{53}") (re.++  (str.to.re "\u{4b}") (re.++  (str.to.re "\u{5f}") (re.++  (str.to.re "\u{53}") (re.++  (str.to.re "\u{54}") (re.++  (str.to.re "\u{41}") (re.++  (str.to.re "\u{54}") (re.++  (str.to.re "\u{55}") (re.++  (str.to.re "\u{53}") (re.++  (str.to.re "\u{3d}") (re.++  (str.to.re "\u{22}") (re.++  (str.to.re "\u{46}") (re.++  (str.to.re "\u{41}") (re.++  (str.to.re "\u{49}") (re.++  (str.to.re "\u{4c}") (re.++  (str.to.re "\u{45}") (re.++  (str.to.re "\u{44}") (re.++  (str.to.re "\u{22}") (re.++ (re.* (re.union (re.range "\u{00}" "\u{09}") (re.range "\u{0b}" "\u{0c}") (re.range "\u{0e}" "\u{84}") (re.range "\u{86}" "\u{ff}")) ) (re.++  (str.to.re "\u{45}") (re.++  (str.to.re "\u{52}") (re.++  (str.to.re "\u{52}") (re.++  (str.to.re "\u{4f}") (re.++  (str.to.re "\u{52}") (re.++  (str.to.re "\u{3d}")  (str.to.re "\u{22}")))))))))))))))))))))))))))) (re.* (re.union (re.range "\u{00}" "\u{09}") (re.range "\u{0b}" "\u{0c}") (re.range "\u{0e}" "\u{84}") (re.range "\u{86}" "\u{ff}")) ))) )))
(check-sat)
(get-model)