TCS_Benchmarks/redos_fix/corpus1_output_distinct_3369_3368_8_0.txt
(.*)(.*)
(.*)(TASK_STATUS="FAILED".*ERROR=")(.*)